

































































































50 12 66 29 
36 17 0 40 55 
69 64 73 44 
52 28 5 39 30 
70 56 19 76 
34 24 16 63 32 
27 54 47 60 
74 23 57 48 
13 15 35 42 4 
8 3 67 21 
31 45 9 1 62 
25 22 7 37 71 
38 51 14 58 53 
41 20 68 61 59 
49 18 11 75 2 
43 65 6 33 
10 46 72 26 
